NAME : portcgen-22-5
COMMENT : portcgen N=22, seed=5
TYPE : TSP
DIMENSION : 22
EDGE_WEIGHT_TYPE : EUC_2D
NODE_COORD_SECTION
1 155401 17739
2 65925 -16887
3 31417 47521
4 -229902 298640
5 -244160 32137
6 19627 -38265
7 145101 185308
8 196956 210446
9 34839 -227562
10 218208 9669
11 23211 -155362
12 123572 191809
13 -102175 354597
14 -49861 172118
15 -72303 78787
16 405923 268912
17 -215459 194292
18 -90054 355786
19 301710 42092
20 74521 65967
21 -82258 174555
22 45186 -22411
